50
391
25
72
36
85
68
20
58
98
39
7
92
20
47
50
16
61
4
38
52
69
6
58
75
5
9
64
0 4
0 7
0 11
0 12
0 14
0 18
0 20
0 26
0 27
0 30
0 38
0 41
0 43
0 45
0 47
1 2
1 13
1 15
1 20
1 26
1 28
1 31
1 33
1 34
1 38
1 39
1 40
1 43
1 44
2 5
2 9
2 12
2 20
2 26
2 27
2 39
2 41
2 47
3 5
3 6
3 7
3 8
3 10
3 16
3 17
3 18
3 20
3 24
3 25
3 27
3 28
3 30
3 31
3 34
3 35
3 42
3 44
3 46
3 47
3 49
4 10
4 13
4 24
4 25
4 27
4 29
4 32
4 35
4 39
4 43
4 44
5 13
5 16
5 20
5 21
5 24
5 31
5 42
5 49
6 9
6 11
6 12
6 14
6 17
6 25
6 29
6 34
6 36
6 38
6 48
6 49
7 8
7 9
7 13
7 19
7 22
7 23
7 25
7 26
7 29
7 35
7 40
7 42
7 44
7 48
8 11
8 12
8 13
8 15
8 18
8 25
8 27
8 30
8 35
8 39
8 41
8 44
8 45
8 49
9 13
9 14
9 20
9 24
9 27
9 28
9 33
9 39
9 40
9 42
9 44
9 46
10 11
10 14
10 17
10 20
10 23
10 25
10 27
10 29
10 39
10 43
11 14
11 15
11 18
11 21
11 26
11 27
11 36
11 41
11 46
12 15
12 17
12 19
12 23
12 30
12 31
12 32
12 35
12 36
12 38
12 40
12 41
12 42
12 45
12 47
13 15
13 16
13 20
13 24
13 25
13 29
13 33
13 36
13 39
13 42
13 43
13 46
13 49
14 15
14 19
14 21
14 23
14 24
14 25
14 26
14 28
14 29
14 32
14 33
14 34
14 35
14 36
14 37
14 41
15 18
15 19
15 22
15 25
15 26
15 30
15 34
15 36
15 41
15 42
15 44
15 48
15 49
16 17
16 21
16 22
16 30
16 33
16 38
16 39
16 41
16 43
16 45
16 47
16 49
17 20
17 23
17 36
17 40
17 42
17 43
17 45
17 49
18 19
18 21
18 25
18 26
18 28
18 29
18 31
18 32
18 35
18 36
18 38
18 42
19 20
19 24
19 27
19 29
19 34
19 35
20 22
20 23
20 29
20 36
20 37
20 38
20 40
20 46
20 47
20 48
21 23
21 25
21 26
21 29
21 31
21 37
21 38
21 40
21 44
22 24
22 27
22 28
22 30
22 31
22 33
22 36
22 40
22 42
22 43
22 46
22 48
22 49
23 30
23 39
23 40
23 44
23 48
24 30
24 31
24 34
24 36
24 37
24 39
24 44
24 46
24 49
25 32
25 38
25 41
25 42
25 45
26 27
26 28
26 29
26 30
26 32
26 39
26 40
26 42
26 43
26 46
26 48
27 29
27 30
27 36
27 37
27 38
27 44
27 48
27 49
28 31
28 34
28 36
28 37
28 39
28 40
28 41
28 46
28 48
28 49
29 30
29 31
29 32
29 41
29 48
29 49
30 31
30 32
30 37
30 38
30 39
30 46
30 48
31 33
31 35
31 39
31 40
31 41
31 42
31 46
31 48
32 38
32 39
32 41
33 35
33 36
33 39
33 40
33 44
33 46
34 35
34 37
34 39
34 40
34 42
34 45
34 46
35 36
35 39
35 47
36 37
36 38
36 42
36 47
36 48
37 43
37 44
37 49
38 41
38 45
38 48
39 40
39 41
39 42
40 41
40 46
41 47
42 44
42 47
43 45
43 46
43 49
44 45
44 49
46 47
46 48
27 7
16 33
35 3
34 37
28 39
5 43
48 9
30 14
8 32
0 29
24 25
49 41
42 2
15 4
13 22
18 6
40 46
26 12
36 45
19 17
21 1
31 23
38 47
44 20
11 10
